NAME 
ROWS
 N  OBJ
 L  R0      
 L  R1      
 L  R2      
 L  R3      
 L  R4      
 L  R5      
 L  R6      
 L  R7      
 L  R8      
 L  R9      
COLUMNS
    MARKER    'MARKER'                 'INTORG'
    x[0]      OBJ       -7
    x[0]      R0        -6
    x[0]      R2        -9
    x[0]      R3        5
    x[0]      R4        6
    x[1]      OBJ       1
    x[1]      R0        -1
    x[1]      R1        10
    x[1]      R2        -3
    x[1]      R3        -2
    x[1]      R4        8
    x[1]      R8        1
    x[2]      OBJ       -7
    x[2]      R0        -10
    x[2]      R1        -10
    x[2]      R2        -9
    x[2]      R3        -4
    x[2]      R4        3
    x[2]      R5        1
    x[2]      R7        1
    x[2]      R8        -1
    x[3]      OBJ       -9
    x[3]      R1        6
    x[3]      R2        4
    x[3]      R3        7
    x[3]      R4        3
    x[3]      R5        1
    x[3]      R7        1
    x[3]      R9        -1
    x[4]      OBJ       3
    x[4]      R0        -9
    x[4]      R1        -7
    x[4]      R2        3
    x[4]      R3        8
    x[4]      R4        2
    x[4]      R5        -1
    x[4]      R6        1
    x[4]      R7        -1
    x[4]      R9        -1
    x[5]      OBJ       7
    x[5]      R0        -4
    x[5]      R1        4
    x[5]      R2        1
    x[5]      R3        -10
    x[5]      R4        9
    x[5]      R5        1
    x[5]      R8        1
    x[5]      R9        -1
    x[6]      OBJ       -2
    x[6]      R0        -5
    x[6]      R1        2
    x[6]      R2        -6
    x[6]      R3        10
    x[6]      R4        -3
    x[6]      R5        1
    x[6]      R6        1
    x[6]      R7        1
    x[6]      R8        1
    x[6]      R9        -1
    x[7]      OBJ       -4
    x[7]      R0        1
    x[7]      R1        6
    x[7]      R2        2
    x[7]      R3        10
    x[7]      R4        -8
    x[7]      R5        -1
    x[7]      R9        -1
    x[8]      OBJ       -6
    x[8]      R0        -3
    x[8]      R1        9
    x[8]      R2        8
    x[8]      R3        -4
    x[8]      R4        5
    x[8]      R7        1
    x[8]      R8        1
    x[8]      R9        1
    x[9]      OBJ       -4
    x[9]      R0        -9
    x[9]      R1        -5
    x[9]      R2        -5
    x[9]      R3        -9
    x[9]      R4        -5
    x[9]      R6        1
    x[9]      R9        -1
    y[0]      OBJ       -1
    y[0]      R0        -1
    y[0]      R1        7
    y[0]      R2        -7
    y[0]      R3        6
    y[0]      R4        -4
    y[0]      R5        79
    y[0]      R6        29
    y[0]      R7        -95
    y[0]      R8        89
    y[0]      R9        -47
    y[1]      OBJ       -5
    y[1]      R0        -3
    y[1]      R2        2
    y[1]      R3        10
    y[1]      R4        -10
    y[1]      R5        -70
    y[1]      R6        -16
    y[1]      R7        11
    y[1]      R8        68
    y[1]      R9        71
    y[2]      OBJ       -6
    y[2]      R0        -5
    y[2]      R1        1
    y[2]      R2        -1
    y[2]      R3        9
    y[2]      R4        -6
    y[2]      R5        -18
    y[2]      R6        -32
    y[2]      R7        70
    y[2]      R8        -28
    y[2]      R9        -2
    y[3]      OBJ       -3
    y[3]      R0        -4
    y[3]      R1        4
    y[3]      R2        -7
    y[3]      R3        -10
    y[3]      R4        -8
    y[3]      R5        77
    y[3]      R6        -46
    y[3]      R7        -54
    y[3]      R8        93
    y[3]      R9        -3
    y[4]      OBJ       -8
    y[4]      R1        -9
    y[4]      R2        -5
    y[4]      R4        9
    y[4]      R5        -19
    y[4]      R6        -75
    y[4]      R7        -79
    y[4]      R8        -78
    y[4]      R9        -25
    y[5]      OBJ       -10
    y[5]      R0        -3
    y[5]      R1        -2
    y[5]      R2        -9
    y[5]      R3        5
    y[5]      R4        4
    y[5]      R5        99
    y[5]      R6        55
    y[5]      R7        79
    y[5]      R8        -98
    y[5]      R9        87
    y[6]      OBJ       -8
    y[6]      R0        -5
    y[6]      R1        -6
    y[6]      R2        2
    y[6]      R3        -9
    y[6]      R4        -9
    y[6]      R5        49
    y[6]      R6        -44
    y[6]      R7        17
    y[6]      R8        -99
    y[6]      R9        -34
    y[7]      OBJ       -10
    y[7]      R0        -4
    y[7]      R1        -3
    y[7]      R2        -1
    y[7]      R3        -9
    y[7]      R4        -10
    y[7]      R5        -82
    y[7]      R6        -8
    y[7]      R7        -27
    y[7]      R8        -28
    y[7]      R9        -26
    y[8]      OBJ       -5
    y[8]      R0        -6
    y[8]      R1        -10
    y[8]      R2        1
    y[8]      R3        -4
    y[8]      R4        -5
    y[8]      R5        74
    y[8]      R6        -92
    y[8]      R7        70
    y[8]      R8        -49
    y[8]      R9        -9
    y[9]      OBJ       -1
    y[9]      R0        -8
    y[9]      R1        5
    y[9]      R2        -10
    y[9]      R3        2
    y[9]      R4        -3
    y[9]      R5        72
    y[9]      R6        83
    y[9]      R7        41
    y[9]      R8        99
    y[9]      R9        -95
    MARKER    'MARKER'                 'INTEND'
RHS
    RHS1      R0        -21.25
    RHS1      R1        0.5
    RHS1      R2        -12.25
    RHS1      R3        2.75
    RHS1      R4        -5.5
    RHS1      R5        66
    RHS1      R6        -36
    RHS1      R7        9
    RHS1      R8        -7
    RHS1      R9        -22
BOUNDS
 BV BND1      x[0]    
 BV BND1      x[1]    
 BV BND1      x[2]    
 BV BND1      x[3]    
 BV BND1      x[4]    
 BV BND1      x[5]    
 BV BND1      x[6]    
 BV BND1      x[7]    
 BV BND1      x[8]    
 BV BND1      x[9]    
 BV BND1      y[0]    
 BV BND1      y[1]    
 BV BND1      y[2]    
 BV BND1      y[3]    
 BV BND1      y[4]    
 BV BND1      y[5]    
 BV BND1      y[6]    
 BV BND1      y[7]    
 BV BND1      y[8]    
 BV BND1      y[9]    
ENDATA
